
100
8469

1233 333
756 156
504 104
1370 370
822 222
882 182
137 37
756 156
1008 208
274 74
822 222
378 78
959 259
630 130
1008 208
504 104
1096 296
274 74
378 78
126 26
252 52
685 185
1370 370
1370 370
378 78
252 52
1008 208
126 26
411 111
1134 234
274 74
1096 296
1008 208
1260 260
1260 260
822 222
252 52
685 185
411 111
756 156
548 148
756 156
756 156
252 52
822 222
252 52
1233 333
882 182
378 78
274 74
1008 208
882 182
882 182
882 182
685 185
378 78
1096 296
411 111
1096 296
548 148
1008 208
959 259
411 111
1260 260
1008 208
630 130
822 222
411 111
411 111
1008 208
252 52
1096 296
1096 296
882 182
1260 260
378 78
959 259
504 104
1260 260
630 130
274 74
378 78
1260 260
959 259
1233 333
378 78
1096 296
1008 208
882 182
1260 260
126 26
882 182
1370 370
252 52
137 37
378 78
252 52
378 78
630 130
882 182
